unsat
((set-logic NIA)
(declare-fun s!0 () Int)
(declare-fun a!4 () Int)
(declare-fun b!2 () Int)
(declare-fun r!1 () Int)
(declare-fun q!3 () Int)
(declare-fun p!5 () Int)
(proof
(let ((?x250 (* r!1 b!2)))
 (let ((?x134 (* s00 a00)))
 (let ((?x232 (+ ?x134 (* (- 1) (* r00 b00)) ?x250 (* (- 1) (* a!4 s!0)))))
 (let (($x1470 (>= ?x232 0)))
 (let (($x230 (= ?x232 0)))
 (let ((?x765 (* a!4 s!0)))
 (let ((?x152 (* r00 b00)))
 (let ((?x141 (* (- 1) ?x134)))
 (let ((?x246 (+ ?x141 ?x152 (* (- 1) ?x250) ?x765)))
 (let ((?x1528 (* (- 3) (* a!4 a!4 p!5 q!3 r!1 r!1 r!1 r!1 s!0 s!0))))
 (let ((?x865 (* (- 1) (* a!4 a!4 p!5 p!5 r!1 r!1 r!1 s!0 s!0 s!0))))
 (let ((?x728 (* 3 (* a!4 a!4 p!5 p!5 r!1 r!1 r!1 r!1 s!0 s!0))))
 (let ((?x1921 (* 3 (* a!4 a!4 p!5 q!3 r!1 r!1 r!1 r!1 r!1 s!0))))
 (let ((?x1008 (* a!4 a!4 q!3 r!1 s!0)))
 (let ((?x536 (* a!4 a!4 p!5 q!3 r!1 r!1 r!1 s!0 s!0 s!0)))
 (let ((?x376 (* (- 1) (* a!4 q!3 r!1 s!0 b!2))))
 (let ((?x1475 (* (- 3) (* a!4 a!4 p!5 p!5 r!1 r!1 r!1 r!1 r!1 s!0))))
 (let ((?x397 (* (- 1) (* a!4 a!4 p!5 q!3 r!1 r!1 r!1 r!1 r!1 r!1))))
 (let ((?x658 (* (- 1) (* a!4 a!4 q!3 r!1 r!1))))
 (let ((?x1464 (+ ?x658 (* a!4 q!3 r!1 r!1 b!2) ?x397 ?x1475 (* (- 1) (* a!4 a!4 p!5 r!1 s!0)) ?x376 ?x536 (* a!4 a!4 p!5 p!5 r!1 r!1 r!1 r!1 r!1 r!1) ?x1008 (* (- 1) (* a!4 p!5 r!1 r!1 b!2)) (* a!4 p!5 r!1 s!0 b!2) (* a!4 a!4 p!5 r!1 r!1) ?x1921 ?x728 ?x865 ?x1528)))
 (let ((?x1632 (* a!4 p!5 p!5 p!5 r!1 s!0 b!2 b!2)))
 (let ((?x1408 (+ (* (- 1) p!5) q!3)))
 (let ((?x1412 (+ (* (- 1) a!4) b!2)))
 (let ((?x1154 (+ (* (- 1) r!1) s!0)))
 (let ((?x1411 (* ?x1154 ?x1154 ?x1154 ?x1412 ?x1412 ?x1412 ?x1408 ?x1408 r!1 r!1 r!1 p!5)))
 (let ((?x470 (+ (* a!4 a!4 a!4 p!5 p!5 p!5 r!1 s!0) (* (- 1) (* a!4 a!4 a!4 p!5 p!5 p!5 r!1 r!1)) ?x1411 (* (- 1) (* a!4 p!5 p!5 p!5 r!1 r!1 b!2 b!2)) ?x1632 (* 2 (* a!4 a!4 p!5 p!5 p!5 r!1 r!1 b!2)) (* (- 2) (* a!4 a!4 p!5 p!5 p!5 r!1 s!0 b!2)))))
 (let ((?x1120 (* ?x470 ?x1464 ?x246)))
 (let (($x1685 (= ?x1120 0)))
 (let ((?x1752 (* (- 1) (* q!3 q!3 r!1 r!1 r!1 s!0 s!0 s!0 b!2 b!2))))
 (let ((?x1683 (* (- 6) (* a!4 q!3 q!3 r!1 r!1 s!0 s!0 s!0 s!0 b!2))))
 (let ((?x1118 (* (- 3) (* q!3 q!3 r!1 s!0 s!0 s!0 s!0 s!0 b!2 b!2))))
 (let ((?x1760 (* (- 3) (* a!4 a!4 p!5 q!3 r!1 r!1 s!0 s!0 s!0 s!0))))
 (let ((?x1702 (* 6 (* a!4 p!5 q!3 r!1 r!1 s!0 s!0 s!0 s!0 b!2))))
 (let ((?x1745 (* (- 3) (* p!5 q!3 r!1 r!1 s!0 s!0 s!0 s!0 b!2 b!2))))
 (let ((?x750 (* 3 (* q!3 q!3 r!1 r!1 s!0 s!0 s!0 s!0 b!2 b!2))))
 (let ((?x1096 (* 3 (* a!4 a!4 p!5 q!3 r!1 s!0 s!0 s!0 s!0 s!0))))
 (let ((?x1531 (* (- 1) (* a!4 a!4 p!5 q!3 s!0 s!0 s!0 s!0 s!0 s!0))))
 (let ((?x1402 (* a!4 a!4 q!3 q!3 s!0 s!0 s!0 s!0 s!0 s!0)))
 (let ((?x1390 (* (- 3) (* a!4 a!4 q!3 q!3 r!1 s!0 s!0 s!0 s!0 s!0))))
 (let ((?x1380 (* 3 (* a!4 a!4 q!3 q!3 r!1 r!1 s!0 s!0 s!0 s!0))))
 (let ((?x1367 (* (- 1) (* a!4 a!4 q!3 q!3 r!1 r!1 r!1 s!0 s!0 s!0))))
 (let ((?x946 (* 2 (* a!4 p!5 q!3 s!0 s!0 s!0 s!0 s!0 s!0 b!2))))
 (let ((?x976 (* (- 2) (* a!4 q!3 q!3 s!0 s!0 s!0 s!0 s!0 s!0 b!2))))
 (let ((?x352 (* (- 2) (* a!4 p!5 q!3 r!1 r!1 r!1 s!0 s!0 s!0 b!2))))
 (let ((?x637 (* 6 (* a!4 q!3 q!3 r!1 s!0 s!0 s!0 s!0 s!0 b!2))))
 (let ((?x1507 (* 3 (* p!5 q!3 r!1 s!0 s!0 s!0 s!0 s!0 b!2 b!2))))
 (let ((?x952 (* (- 1) (* p!5 q!3 s!0 s!0 s!0 s!0 s!0 s!0 b!2 b!2))))
 (let ((?x1717 (* 2 (* a!4 q!3 q!3 r!1 r!1 r!1 s!0 s!0 s!0 b!2))))
 (let ((?x678 (* (- 6) (* a!4 p!5 q!3 r!1 s!0 s!0 s!0 s!0 s!0 b!2))))
 (let ((?x1469 (+ ?x678 ?x376 ?x1717 ?x536 ?x952 ?x1507 ?x637 ?x352 (* p!5 q!3 r!1 r!1 r!1 s!0 s!0 s!0 b!2 b!2) ?x976 (* q!3 q!3 s!0 s!0 s!0 s!0 s!0 s!0 b!2 b!2) ?x946 ?x1367 ?x1380 ?x1390 ?x1402 ?x1531 ?x1096 ?x750 ?x1745 ?x1702 (* a!4 q!3 s!0 s!0 b!2) ?x1760 ?x1118 ?x1683 (* q!3 r!1 s!0 b!2 b!2) (* (- 1) (* q!3 s!0 s!0 b!2 b!2)) ?x1752)))
 (let ((?x1818 (* p!5 q!3 q!3 s!0 s!0 s!0 s!0 s!0 s!0 b!2 b!2 b!2)))
 (let ((?x1780 (* p!5 q!3 q!3 r!1 s!0 s!0 s!0 s!0 s!0 b!2 b!2 b!2)))
 (let ((?x1665 (* q!3 q!3 q!3 r!1 r!1 r!1 s!0 s!0 s!0 b!2 b!2 b!2)))
 (let ((?x1595 (* p!5 q!3 q!3 r!1 r!1 s!0 s!0 s!0 s!0 b!2 b!2 b!2)))
 (let ((?x1589 (* p!5 q!3 q!3 r!1 r!1 r!1 s!0 s!0 s!0 b!2 b!2 b!2)))
 (let ((?x1523 (* q!3 q!3 q!3 r!1 s!0 s!0 s!0 s!0 s!0 b!2 b!2 b!2)))
 (let ((?x866 (* q!3 q!3 q!3 r!1 r!1 s!0 s!0 s!0 s!0 b!2 b!2 b!2)))
 (let ((?x516 (* q!3 q!3 q!3 s!0 s!0 s!0 s!0 s!0 s!0 b!2 b!2 b!2)))
 (let ((?x466 (+ (* (- 3) (* a!4 p!5 p!5 q!3 r!1 s!0 b!2 b!2)) (* 3 (* a!4 p!5 p!5 q!3 s!0 s!0 b!2 b!2)) (* (- 3) (* a!4 p!5 q!3 q!3 s!0 s!0 b!2 b!2)) (* 3 (* p!5 p!5 q!3 r!1 s!0 b!2 b!2 b!2)) (* 3 (* p!5 q!3 q!3 s!0 s!0 b!2 b!2 b!2)) ?x516 (* (- 1) (* a!4 p!5 p!5 p!5 s!0 s!0 b!2 b!2)) (* p!5 p!5 p!5 s!0 s!0 b!2 b!2 b!2) (* (- 1) (* a!4 q!3 q!3 q!3 r!1 s!0 b!2 b!2)) (* (- 3) (* p!5 p!5 q!3 s!0 s!0 b!2 b!2 b!2)) (* 3 ?x866) (* (- 1) (* p!5 p!5 p!5 r!1 s!0 b!2 b!2 b!2)) (* a!4 q!3 q!3 q!3 s!0 s!0 b!2 b!2) (* (- 1) (* q!3 q!3 q!3 s!0 s!0 b!2 b!2 b!2)) (* 3 (* a!4 p!5 q!3 q!3 r!1 s!0 b!2 b!2)) (* q!3 q!3 q!3 r!1 s!0 b!2 b!2 b!2) (* (- 3) ?x1523) ?x1589 (* (- 3) ?x1595) ?x1632 (* (- 3) (* p!5 q!3 q!3 r!1 s!0 b!2 b!2 b!2)) (* (- 1) ?x1665) (* 3 ?x1780) (* (- 1) ?x1818))))
 (let ((?x1028 (* ?x466 ?x1469 ?x246)))
 (let (($x428 (= ?x1028 0)))
 (let (($x1739 (not $x428)))
 (let (($x365 (or $x1739 (not $x1685))))
 (let ((?x1038 (+ (* q00 r00 b!2) (* (- 1) (* p00 s00 b!2)) (* p00 b00 s!0) (* s00 a00 q!3) (* (- 1) (* r00 b00 q!3)) (* (- 1) (* q00 a00 s!0)))))
 (let ((?x358 (+ (* p00 b00 r!1) (* (- 1) (* p00 s00 a!4)) (* q00 r00 a!4) (* (- 1) (* r00 b00 p!5)) (* s00 a00 p!5) (* (- 1) (* q00 a00 r!1)))))
 (let ((?x773 (* p!5 b!2)))
 (let ((?x140 (* q00 a00)))
 (let (($x200 (= (+ ?x140 (* (- 1) (* p00 b00)) ?x773 (* (- 1) (* a!4 q!3))) 0)))
 (let ((?x214 (* q!3 r!1)))
 (let ((?x41 (* q00 r00)))
 (let ((?x1262 (* (- 1) ?x41)))
 (let ((?x37 (* p00 s00)))
 (let (($x1712 (and (= (+ ?x37 ?x1262 (* (- 1) (* p!5 s!0)) ?x214) 0) $x230 $x200 (= ?x358 0) (= ?x1038 0) $x365)))
 (let ((?x1101 (+ ?x765 (* (- 1) (* b!2 r!1)) ?x141 ?x152)))
 (let ((?x164 (* (- 1) (* p!5 p!5 a!4 a!4 r!1 r!1 r!1 s!0 s!0 s!0))))
 (let ((?x497 (* (- 3) (* p!5 a!4 a!4 q!3 r!1 r!1 r!1 r!1 s!0 s!0))))
 (let ((?x1577 (* 3 (* p!5 p!5 a!4 a!4 r!1 r!1 r!1 r!1 s!0 s!0))))
 (let ((?x1571 (* 3 (* p!5 a!4 a!4 q!3 r!1 r!1 r!1 r!1 r!1 s!0))))
 (let ((?x1285 (* (- 3) (* p!5 p!5 a!4 a!4 r!1 r!1 r!1 r!1 r!1 s!0))))
 (let ((?x640 (* (- 1) (* p!5 a!4 a!4 q!3 r!1 r!1 r!1 r!1 r!1 r!1))))
 (let ((?x1366 (* p!5 a!4 a!4 q!3 r!1 r!1 r!1 s!0 s!0 s!0)))
 (let ((?x1148 (* (- 1) (* a!4 q!3 b!2 r!1 s!0))))
 (let ((?x660 (+ (* (- 1) (* p!5 a!4 b!2 r!1 r!1)) (* p!5 a!4 b!2 r!1 s!0) (* (- 1) (* p!5 a!4 a!4 r!1 s!0)) ?x1148 ?x1366 (* p!5 a!4 a!4 r!1 r!1) ?x1008 (* a!4 q!3 b!2 r!1 r!1) (* p!5 p!5 a!4 a!4 r!1 r!1 r!1 r!1 r!1 r!1) ?x640 ?x1285 ?x1571 ?x1577 ?x497 ?x164 ?x658)))
 (let ((?x1341 (* p!5 p!5 p!5 a!4 b!2 b!2 r!1 s!0)))
 (let ((?x704 (+ ?x1411 ?x1341 (* (- 2) (* p!5 p!5 p!5 a!4 a!4 b!2 r!1 s!0)) (* p!5 p!5 p!5 a!4 a!4 a!4 r!1 s!0) (* (- 1) (* p!5 p!5 p!5 a!4 b!2 b!2 r!1 r!1)) (* 2 (* p!5 p!5 p!5 a!4 a!4 b!2 r!1 r!1)) (* (- 1) (* p!5 p!5 p!5 a!4 a!4 a!4 r!1 r!1)))))
 (let ((?x1400 (* (- 2) (* a!4 q!3 q!3 b!2 s!0 s!0 s!0 s!0 s!0 s!0))))
 (let ((?x1401 (* (- 1) (* p!5 q!3 b!2 b!2 s!0 s!0 s!0 s!0 s!0 s!0))))
 (let ((?x1396 (* 2 (* p!5 a!4 q!3 b!2 s!0 s!0 s!0 s!0 s!0 s!0))))
 (let ((?x1394 (* (- 1) (* p!5 a!4 a!4 q!3 s!0 s!0 s!0 s!0 s!0 s!0))))
 (let ((?x1152 (* (- 3) (* q!3 q!3 b!2 b!2 r!1 s!0 s!0 s!0 s!0 s!0))))
 (let ((?x1392 (* 6 (* a!4 q!3 q!3 b!2 r!1 s!0 s!0 s!0 s!0 s!0))))
 (let ((?x1386 (* 3 (* p!5 q!3 b!2 b!2 r!1 s!0 s!0 s!0 s!0 s!0))))
 (let ((?x1383 (* (- 6) (* p!5 a!4 q!3 b!2 r!1 s!0 s!0 s!0 s!0 s!0))))
 (let ((?x1388 (* 3 (* p!5 a!4 a!4 q!3 r!1 s!0 s!0 s!0 s!0 s!0))))
 (let ((?x1384 (* 3 (* q!3 q!3 b!2 b!2 r!1 r!1 s!0 s!0 s!0 s!0))))
 (let ((?x1382 (* (- 6) (* a!4 q!3 q!3 b!2 r!1 r!1 s!0 s!0 s!0 s!0))))
 (let ((?x1379 (* (- 3) (* p!5 q!3 b!2 b!2 r!1 r!1 s!0 s!0 s!0 s!0))))
 (let ((?x1375 (* 6 (* p!5 a!4 q!3 b!2 r!1 r!1 s!0 s!0 s!0 s!0))))
 (let ((?x1373 (* (- 3) (* p!5 a!4 a!4 q!3 r!1 r!1 s!0 s!0 s!0 s!0))))
 (let ((?x1149 (* (- 1) (* q!3 q!3 b!2 b!2 r!1 r!1 r!1 s!0 s!0 s!0))))
 (let ((?x1368 (* 2 (* a!4 q!3 q!3 b!2 r!1 r!1 r!1 s!0 s!0 s!0))))
 (let ((?x1363 (* (- 2) (* p!5 a!4 q!3 b!2 r!1 r!1 r!1 s!0 s!0 s!0))))
 (let ((?x1153 (+ ?x1148 ?x1366 ?x1363 (* p!5 q!3 b!2 b!2 r!1 r!1 r!1 s!0 s!0 s!0) ?x1367 ?x1368 ?x1149 ?x1373 (* a!4 q!3 b!2 s!0 s!0) ?x1375 (* q!3 b!2 b!2 r!1 s!0) (* (- 1) (* q!3 b!2 b!2 s!0 s!0)) ?x1379 ?x1380 ?x1382 ?x1384 ?x1388 ?x1383 ?x1386 ?x1390 ?x1392 ?x1152 ?x1394 ?x1396 ?x1401 ?x1402 ?x1400 (* q!3 q!3 b!2 b!2 s!0 s!0 s!0 s!0 s!0 s!0))))
 (let ((?x1339 (* q!3 q!3 q!3 b!2 b!2 b!2 s!0 s!0 s!0 s!0 s!0 s!0)))
 (let ((?x1336 (* p!5 q!3 q!3 b!2 b!2 b!2 s!0 s!0 s!0 s!0 s!0 s!0)))
 (let ((?x1334 (* q!3 q!3 q!3 b!2 b!2 b!2 r!1 s!0 s!0 s!0 s!0 s!0)))
 (let ((?x1332 (* p!5 q!3 q!3 b!2 b!2 b!2 r!1 s!0 s!0 s!0 s!0 s!0)))
 (let ((?x1330 (* q!3 q!3 q!3 b!2 b!2 b!2 r!1 r!1 s!0 s!0 s!0 s!0)))
 (let ((?x1328 (* p!5 q!3 q!3 b!2 b!2 b!2 r!1 r!1 s!0 s!0 s!0 s!0)))
 (let ((?x1331 (* q!3 q!3 q!3 b!2 b!2 b!2 r!1 r!1 r!1 s!0 s!0 s!0)))
 (let ((?x1329 (* p!5 q!3 q!3 b!2 b!2 b!2 r!1 r!1 r!1 s!0 s!0 s!0)))
 (let ((?x1360 (+ ?x1329 (* (- 1) ?x1331) (* (- 3) ?x1328) (* 3 ?x1330) (* 3 ?x1332) (* (- 3) ?x1334) (* (- 1) ?x1336) ?x1339 ?x1341 (* (- 1) (* p!5 p!5 p!5 b!2 b!2 b!2 r!1 s!0)) (* (- 3) (* p!5 p!5 a!4 q!3 b!2 b!2 r!1 s!0)) (* 3 (* p!5 p!5 q!3 b!2 b!2 b!2 r!1 s!0)) (* 3 (* p!5 a!4 q!3 q!3 b!2 b!2 r!1 s!0)) (* (- 3) (* p!5 q!3 q!3 b!2 b!2 b!2 r!1 s!0)) (* (- 1) (* a!4 q!3 q!3 q!3 b!2 b!2 r!1 s!0)) (* q!3 q!3 q!3 b!2 b!2 b!2 r!1 s!0) (* (- 1) (* p!5 p!5 p!5 a!4 b!2 b!2 s!0 s!0)) (* p!5 p!5 p!5 b!2 b!2 b!2 s!0 s!0) (* 3 (* p!5 p!5 a!4 q!3 b!2 b!2 s!0 s!0)) (* (- 3) (* p!5 p!5 q!3 b!2 b!2 b!2 s!0 s!0)) (* (- 3) (* p!5 a!4 q!3 q!3 b!2 b!2 s!0 s!0)) (* 3 (* p!5 q!3 q!3 b!2 b!2 b!2 s!0 s!0)) (* a!4 q!3 q!3 q!3 b!2 b!2 s!0 s!0) (* (- 1) (* q!3 q!3 q!3 b!2 b!2 b!2 s!0 s!0)))))
 (let (($x707 (or (not (= (* ?x1360 ?x1153 ?x1101) 0)) (not (= (* ?x704 ?x660 ?x1101) 0)))))
 (let ((?x1296 (+ (* b!2 q00 r00) (* (- 1) (* b!2 p00 s00)) (* s!0 p00 b00) (* (- 1) (* q!3 r00 b00)) (* q!3 s00 a00) (* (- 1) (* s!0 q00 a00)))))
 (let ((?x1317 (+ (* a!4 p00 s00) (* (- 1) (* a!4 q00 r00)) (* p!5 r00 b00) (* (- 1) (* r!1 p00 b00)) (* (- 1) (* p!5 s00 a00)) (* r!1 q00 a00))))
 (let (($x1830 (= (+ (* a!4 q!3) (* (- 1) ?x140) (* p00 b00) (* (- 1) ?x773)) 0)))
 (let (($x708 (and (= (+ (* p!5 s!0) (* (- 1) ?x37) ?x41 (* (- 1) ?x214)) 0) (= ?x1101 0) $x1830 (= ?x1317 0) (= ?x1296 0) $x707)))
 (let (($x1300 (exists ((p Int) (a Int) (q Int) (b Int) (r Int) (s Int) )(! (let ((?x152 (* r00 b00)))
 (let ((?x134 (* s00 a00)))
 (let ((?x141 (* (- 1) ?x134)))
 (let ((?x129 (* (- 1) (* b r))))
 (let ((?x49 (* a s)))
 (let ((?x159 (+ ?x49 ?x129 ?x141 ?x152)))
 (let ((?x1620 (* (- 1) (* p p a a r r r s s s))))
 (let ((?x1629 (* (- 3) (* p a a q r r r r s s))))
 (let ((?x1628 (* 3 (* p p a a r r r r s s))))
 (let ((?x1627 (* 3 (* p a a q r r r r r s))))
 (let ((?x1626 (* (- 3) (* p p a a r r r r r s))))
 (let ((?x1514 (* (- 1) (* p a a q r r r r r r))))
 (let ((?x1502 (* p p a a r r r r r r)))
 (let ((?x431 (* p a a q r r r s s s)))
 (let ((?x498 (* (- 1) (* a q b r s))))
 (let ((?x1882 (+ (* (- 1) (* p a b r r)) (* p a b r s) (* (- 1) (* p a a r s)) ?x498 ?x431 (* p a a r r) (* a a q r s) (* a q b r r) ?x1502 ?x1514 ?x1626 ?x1627 ?x1628 ?x1629 ?x1620 (* (- 1) (* a a q r r)))))
 (let ((?x1746 (* (- 1) (* p p p a a a r r))))
 (let ((?x1689 (* 2 (* p p p a a b r r))))
 (let ((?x1721 (* (- 1) (* p p p a b b r r))))
 (let ((?x1715 (* p p p a a a r s)))
 (let ((?x1688 (* (- 2) (* p p p a a b r s))))
 (let ((?x1159 (* p p p a b b r s)))
 (let ((?x338 (* (- 1) p)))
 (let ((?x1468 (+ ?x338 q)))
 (let ((?x955 (* (- 1) a)))
 (let ((?x977 (+ ?x955 b)))
 (let ((?x944 (* (- 1) r)))
 (let ((?x948 (+ ?x944 s)))
 (let ((?x1722 (+ (* ?x948 ?x948 ?x948 ?x977 ?x977 ?x977 ?x1468 ?x1468 r r r p) ?x1159 ?x1688 ?x1715 ?x1721 ?x1689 ?x1746)))
 (let ((?x909 (* q q b b s s s s s s)))
 (let ((?x938 (* (- 2) (* a q q b s s s s s s))))
 (let ((?x884 (* a a q q s s s s s s)))
 (let ((?x882 (* (- 1) (* p q b b s s s s s s))))
 (let ((?x937 (* 2 (* p a q b s s s s s s))))
 (let ((?x857 (* (- 1) (* p a a q s s s s s s))))
 (let ((?x936 (* (- 3) (* q q b b r s s s s s))))
 (let ((?x935 (* 6 (* a q q b r s s s s s))))
 (let ((?x934 (* (- 3) (* a a q q r s s s s s))))
 (let ((?x933 (* 3 (* p q b b r s s s s s))))
 (let ((?x932 (* (- 6) (* p a q b r s s s s s))))
 (let ((?x931 (* 3 (* p a a q r s s s s s))))
 (let ((?x930 (* 3 (* q q b b r r s s s s))))
 (let ((?x929 (* (- 6) (* a q q b r r s s s s))))
 (let ((?x927 (* 3 (* a a q q r r s s s s))))
 (let ((?x925 (* (- 3) (* p q b b r r s s s s))))
 (let ((?x924 (* 6 (* p a q b r r s s s s))))
 (let ((?x922 (* (- 3) (* p a a q r r s s s s))))
 (let ((?x480 (* (- 1) (* q q b b r r r s s s))))
 (let ((?x920 (* 2 (* a q q b r r r s s s))))
 (let ((?x455 (* (- 1) (* a a q q r r r s s s))))
 (let ((?x449 (* p q b b r r r s s s)))
 (let ((?x918 (* (- 2) (* p a q b r r r s s s))))
 (let ((?x1623 (+ ?x498 ?x431 ?x918 ?x449 ?x455 ?x920 ?x480 ?x922 (* a q b s s) ?x924 (* q b b r s) (* (- 1) (* q b b s s)) ?x925 ?x927 ?x929 ?x930 ?x931 ?x932 ?x933 ?x934 ?x935 ?x936 ?x857 ?x937 ?x882 ?x884 ?x938 ?x909)))
 (let ((?x1094 (* (- 1) (* p q q b b b s s s s s s))))
 (let ((?x1111 (* (- 3) (* q q q b b b r s s s s s))))
 (let ((?x1110 (* 3 (* p q q b b b r s s s s s))))
 (let ((?x1109 (* 3 (* q q q b b b r r s s s s))))
 (let ((?x1108 (* (- 3) (* p q q b b b r r s s s s))))
 (let ((?x988 (* (- 1) (* q q q b b b r r r s s s))))
 (let ((?x1433 (+ (* p q q b b b r r r s s s) ?x988 ?x1108 ?x1109 ?x1110 ?x1111 ?x1094 (* q q q b b b s s s s s s) ?x1159 (* (- 1) (* p p p b b b r s)) (* (- 3) (* p p a q b b r s)) (* 3 (* p p q b b b r s)) (* 3 (* p a q q b b r s)) (* (- 3) (* p q q b b b r s)) (* (- 1) (* a q q q b b r s)) (* q q q b b b r s) (* (- 1) (* p p p a b b s s)) (* p p p b b b s s) (* 3 (* p p a q b b s s)) (* (- 3) (* p p q b b b s s)) (* (- 3) (* p a q q b b s s)) (* 3 (* p q q b b b s s)) (* a q q q b b s s) (* (- 1) (* q q q b b b s s)))))
 (let (($x1888 (or (not (= (* ?x1433 ?x1623 ?x159) 0)) (not (= (* ?x1722 ?x1882 ?x159) 0)))))
 (let ((?x72 (* b q00 r00)))
 (let ((?x318 (+ ?x72 (* (- 1) (* b p00 s00)) (* s p00 b00) (* (- 1) (* q r00 b00)) (* q s00 a00) (* (- 1) (* s q00 a00)))))
 (let (($x323 (= ?x318 0)))
 (let ((?x63 (* a p00 s00)))
 (let ((?x254 (+ ?x63 (* (- 1) (* a q00 r00)) (* p r00 b00) (* (- 1) (* r p00 b00)) (* (- 1) (* p s00 a00)) (* r q00 a00))))
 (let (($x255 (= ?x254 0)))
 (let ((?x145 (* p00 b00)))
 (let ((?x140 (* q00 a00)))
 (let ((?x186 (* (- 1) ?x140)))
 (let (($x189 (= (+ (* a q) ?x186 ?x145 (* (- 1) (* p b))) 0)))
 (let (($x167 (= ?x159 0)))
 (let ((?x41 (* q00 r00)))
 (let ((?x37 (* p00 s00)))
 (let ((?x143 (* (- 1) ?x37)))
 (let ((?x33 (* p s)))
 (let (($x162 (= (+ ?x33 ?x143 ?x41 (* (- 1) (* q r))) 0)))
 (and $x162 $x167 $x189 $x255 $x323 $x1888)))))))))))))))))))))))))))))))))))))))))))))))))))))))))))))))))))))))))))))) :qid k!39))
 ))
 (let (($x1569 (exists ((p Int) (a Int) (q Int) (b Int) (r Int) (s Int) )(! (let ((?x51 (* b00 r00)))
 (let ((?x47 (* a00 s00)))
 (let ((?x982 (* (- 1) ?x47)))
 (let ((?x1246 (+ (* (- 1) (* (+ b (* (- 1) a)) r)) ?x982 (* (+ s (* (- 1) r)) a) ?x51)))
 (let ((?x338 (* (- 1) p)))
 (let ((?x1260 (+ q ?x338)))
 (let ((?x944 (* (- 1) r)))
 (let ((?x1223 (+ s ?x944)))
 (let ((?x1279 (+ (* (- 1) (* ?x1223 (+ b (* (- 1) a)) ?x1260 r a)) (* ?x1223 ?x1223 ?x1223 ?x1260 r r r a a p))))
 (let ((?x955 (* (- 1) a)))
 (let ((?x1245 (+ b ?x955)))
 (let ((?x1283 (+ (* ?x1223 ?x1223 ?x1223 ?x1245 ?x1245 ?x1245 ?x1260 ?x1260 r r r p) (* ?x1223 ?x1245 ?x1245 r a p p p))))
 (let ((?x1218 (+ (* (- 1) (* (+ r (* (- 1) s)) b)) ?x982 (* (+ a (* (- 1) b)) s) ?x51)))
 (let ((?x1133 (+ p (* (- 1) q))))
 (let ((?x302 (* (- 1) b)))
 (let ((?x1207 (+ a ?x302)))
 (let ((?x264 (* (- 1) s)))
 (let ((?x1473 (+ r ?x264)))
 (let ((?x1248 (+ (* (- 1) (* ?x1473 ?x1207 s b q)) (* ?x1473 ?x1473 ?x1473 ?x1207 ?x1207 ?x1133 s s s q))))
 (let ((?x1253 (+ (* ?x1473 ?x1473 ?x1473 ?x1133 s s s b b b q q) (* ?x1473 ?x1207 ?x1133 ?x1133 ?x1133 s b b))))
 (let (($x1271 (or (not (= (* ?x1253 ?x1248 ?x1218) 0)) (not (= (* ?x1283 ?x1279 ?x1246) 0)))))
 (let ((?x73 (* b00 p00 s)))
 (let ((?x1228 (+ (* q00 r00 b) ?x73 (* (- 1) (* b00 r00 q)) (* (- 1) (* p00 s00 b)) (* a00 s00 q) (* (- 1) (* a00 q00 s)))))
 (let (($x1232 (= ?x1228 0)))
 (let ((?x69 (* a00 q00 r)))
 (let ((?x822 (* p00 s00 a)))
 (let ((?x727 (* b00 r00 p)))
 (let ((?x1235 (+ ?x727 ?x822 (* (- 1) (* b00 p00 r)) (* (- 1) (* q00 r00 a)) (* (- 1) (* a00 s00 p)) ?x69)))
 (let ((?x57 (* b00 p00)))
 (let ((?x1568 (* q a)))
 (let (($x1222 (= (+ ?x1568 (* (- 1) (* a00 q00)) ?x57 (* (- 1) (* b p))) 0)))
 (let (($x1171 (= (+ (* r b) ?x47 (* (- 1) (* s a)) (* (- 1) ?x51)) 0)))
 (let ((?x41 (* q00 r00)))
 (let ((?x1262 (* (- 1) ?x41)))
 (let ((?x37 (* p00 s00)))
 (let ((?x1559 (* r q)))
 (and (= (+ ?x1559 (* (- 1) (* s p)) ?x37 ?x1262) 0) $x1171 $x1222 (= ?x1235 0) $x1232 $x1271))))))))))))))))))))))))))))))))))))) :qid k!39))
 ))
 (let ((?x1303 (lambda ((p Int) (a Int) (q Int) (b Int) (r Int) (s Int) )(let ((?x152 (* r00 b00)))
 (let ((?x134 (* s00 a00)))
 (let ((?x141 (* (- 1) ?x134)))
 (let ((?x129 (* (- 1) (* b r))))
 (let ((?x49 (* a s)))
 (let ((?x159 (+ ?x49 ?x129 ?x141 ?x152)))
 (let ((?x1620 (* (- 1) (* p p a a r r r s s s))))
 (let ((?x1629 (* (- 3) (* p a a q r r r r s s))))
 (let ((?x1628 (* 3 (* p p a a r r r r s s))))
 (let ((?x1627 (* 3 (* p a a q r r r r r s))))
 (let ((?x1626 (* (- 3) (* p p a a r r r r r s))))
 (let ((?x1514 (* (- 1) (* p a a q r r r r r r))))
 (let ((?x1502 (* p p a a r r r r r r)))
 (let ((?x431 (* p a a q r r r s s s)))
 (let ((?x498 (* (- 1) (* a q b r s))))
 (let ((?x1882 (+ (* (- 1) (* p a b r r)) (* p a b r s) (* (- 1) (* p a a r s)) ?x498 ?x431 (* p a a r r) (* a a q r s) (* a q b r r) ?x1502 ?x1514 ?x1626 ?x1627 ?x1628 ?x1629 ?x1620 (* (- 1) (* a a q r r)))))
 (let ((?x1746 (* (- 1) (* p p p a a a r r))))
 (let ((?x1689 (* 2 (* p p p a a b r r))))
 (let ((?x1721 (* (- 1) (* p p p a b b r r))))
 (let ((?x1715 (* p p p a a a r s)))
 (let ((?x1688 (* (- 2) (* p p p a a b r s))))
 (let ((?x1159 (* p p p a b b r s)))
 (let ((?x338 (* (- 1) p)))
 (let ((?x1468 (+ ?x338 q)))
 (let ((?x955 (* (- 1) a)))
 (let ((?x977 (+ ?x955 b)))
 (let ((?x944 (* (- 1) r)))
 (let ((?x948 (+ ?x944 s)))
 (let ((?x1722 (+ (* ?x948 ?x948 ?x948 ?x977 ?x977 ?x977 ?x1468 ?x1468 r r r p) ?x1159 ?x1688 ?x1715 ?x1721 ?x1689 ?x1746)))
 (let ((?x909 (* q q b b s s s s s s)))
 (let ((?x938 (* (- 2) (* a q q b s s s s s s))))
 (let ((?x884 (* a a q q s s s s s s)))
 (let ((?x882 (* (- 1) (* p q b b s s s s s s))))
 (let ((?x937 (* 2 (* p a q b s s s s s s))))
 (let ((?x857 (* (- 1) (* p a a q s s s s s s))))
 (let ((?x936 (* (- 3) (* q q b b r s s s s s))))
 (let ((?x935 (* 6 (* a q q b r s s s s s))))
 (let ((?x934 (* (- 3) (* a a q q r s s s s s))))
 (let ((?x933 (* 3 (* p q b b r s s s s s))))
 (let ((?x932 (* (- 6) (* p a q b r s s s s s))))
 (let ((?x931 (* 3 (* p a a q r s s s s s))))
 (let ((?x930 (* 3 (* q q b b r r s s s s))))
 (let ((?x929 (* (- 6) (* a q q b r r s s s s))))
 (let ((?x927 (* 3 (* a a q q r r s s s s))))
 (let ((?x925 (* (- 3) (* p q b b r r s s s s))))
 (let ((?x924 (* 6 (* p a q b r r s s s s))))
 (let ((?x922 (* (- 3) (* p a a q r r s s s s))))
 (let ((?x480 (* (- 1) (* q q b b r r r s s s))))
 (let ((?x920 (* 2 (* a q q b r r r s s s))))
 (let ((?x455 (* (- 1) (* a a q q r r r s s s))))
 (let ((?x449 (* p q b b r r r s s s)))
 (let ((?x918 (* (- 2) (* p a q b r r r s s s))))
 (let ((?x1623 (+ ?x498 ?x431 ?x918 ?x449 ?x455 ?x920 ?x480 ?x922 (* a q b s s) ?x924 (* q b b r s) (* (- 1) (* q b b s s)) ?x925 ?x927 ?x929 ?x930 ?x931 ?x932 ?x933 ?x934 ?x935 ?x936 ?x857 ?x937 ?x882 ?x884 ?x938 ?x909)))
 (let ((?x1094 (* (- 1) (* p q q b b b s s s s s s))))
 (let ((?x1111 (* (- 3) (* q q q b b b r s s s s s))))
 (let ((?x1110 (* 3 (* p q q b b b r s s s s s))))
 (let ((?x1109 (* 3 (* q q q b b b r r s s s s))))
 (let ((?x1108 (* (- 3) (* p q q b b b r r s s s s))))
 (let ((?x988 (* (- 1) (* q q q b b b r r r s s s))))
 (let ((?x1433 (+ (* p q q b b b r r r s s s) ?x988 ?x1108 ?x1109 ?x1110 ?x1111 ?x1094 (* q q q b b b s s s s s s) ?x1159 (* (- 1) (* p p p b b b r s)) (* (- 3) (* p p a q b b r s)) (* 3 (* p p q b b b r s)) (* 3 (* p a q q b b r s)) (* (- 3) (* p q q b b b r s)) (* (- 1) (* a q q q b b r s)) (* q q q b b b r s) (* (- 1) (* p p p a b b s s)) (* p p p b b b s s) (* 3 (* p p a q b b s s)) (* (- 3) (* p p q b b b s s)) (* (- 3) (* p a q q b b s s)) (* 3 (* p q q b b b s s)) (* a q q q b b s s) (* (- 1) (* q q q b b b s s)))))
 (let (($x1888 (or (not (= (* ?x1433 ?x1623 ?x159) 0)) (not (= (* ?x1722 ?x1882 ?x159) 0)))))
 (let ((?x72 (* b q00 r00)))
 (let ((?x318 (+ ?x72 (* (- 1) (* b p00 s00)) (* s p00 b00) (* (- 1) (* q r00 b00)) (* q s00 a00) (* (- 1) (* s q00 a00)))))
 (let (($x323 (= ?x318 0)))
 (let ((?x63 (* a p00 s00)))
 (let ((?x254 (+ ?x63 (* (- 1) (* a q00 r00)) (* p r00 b00) (* (- 1) (* r p00 b00)) (* (- 1) (* p s00 a00)) (* r q00 a00))))
 (let (($x255 (= ?x254 0)))
 (let ((?x145 (* p00 b00)))
 (let ((?x140 (* q00 a00)))
 (let ((?x186 (* (- 1) ?x140)))
 (let (($x189 (= (+ (* a q) ?x186 ?x145 (* (- 1) (* p b))) 0)))
 (let (($x167 (= ?x159 0)))
 (let ((?x41 (* q00 r00)))
 (let ((?x37 (* p00 s00)))
 (let ((?x143 (* (- 1) ?x37)))
 (let ((?x33 (* p s)))
 (let (($x162 (= (+ ?x33 ?x143 ?x41 (* (- 1) (* q r))) 0)))
 (let (($x1982 (and $x162 $x167 $x189 $x255 $x323 $x1888)))
 (let ((?x51 (* b00 r00)))
 (let ((?x47 (* a00 s00)))
 (let ((?x982 (* (- 1) ?x47)))
 (let ((?x1246 (+ (* (- 1) (* (+ b ?x955) r)) ?x982 (* (+ s ?x944) a) ?x51)))
 (let ((?x1260 (+ q ?x338)))
 (let ((?x1223 (+ s ?x944)))
 (let ((?x1279 (+ (* (- 1) (* ?x1223 (+ b ?x955) ?x1260 r a)) (* ?x1223 ?x1223 ?x1223 ?x1260 r r r a a p))))
 (let ((?x1245 (+ b ?x955)))
 (let ((?x1283 (+ (* ?x1223 ?x1223 ?x1223 ?x1245 ?x1245 ?x1245 ?x1260 ?x1260 r r r p) (* ?x1223 ?x1245 ?x1245 r a p p p))))
 (let ((?x1218 (+ (* (- 1) (* (+ r (* (- 1) s)) b)) ?x982 (* (+ a (* (- 1) b)) s) ?x51)))
 (let ((?x1133 (+ p (* (- 1) q))))
 (let ((?x302 (* (- 1) b)))
 (let ((?x1207 (+ a ?x302)))
 (let ((?x264 (* (- 1) s)))
 (let ((?x1473 (+ r ?x264)))
 (let ((?x1248 (+ (* (- 1) (* ?x1473 ?x1207 s b q)) (* ?x1473 ?x1473 ?x1473 ?x1207 ?x1207 ?x1133 s s s q))))
 (let ((?x1253 (+ (* ?x1473 ?x1473 ?x1473 ?x1133 s s s b b b q q) (* ?x1473 ?x1207 ?x1133 ?x1133 ?x1133 s b b))))
 (let (($x1271 (or (not (= (* ?x1253 ?x1248 ?x1218) 0)) (not (= (* ?x1283 ?x1279 ?x1246) 0)))))
 (let ((?x73 (* b00 p00 s)))
 (let ((?x1228 (+ (* q00 r00 b) ?x73 (* (- 1) (* b00 r00 q)) (* (- 1) (* p00 s00 b)) (* a00 s00 q) (* (- 1) (* a00 q00 s)))))
 (let (($x1232 (= ?x1228 0)))
 (let ((?x69 (* a00 q00 r)))
 (let ((?x822 (* p00 s00 a)))
 (let ((?x727 (* b00 r00 p)))
 (let ((?x1235 (+ ?x727 ?x822 (* (- 1) (* b00 p00 r)) (* (- 1) (* q00 r00 a)) (* (- 1) (* a00 s00 p)) ?x69)))
 (let ((?x57 (* b00 p00)))
 (let ((?x1568 (* q a)))
 (let (($x1222 (= (+ ?x1568 (* (- 1) (* a00 q00)) ?x57 (* (- 1) (* b p))) 0)))
 (let (($x1171 (= (+ (* r b) ?x47 (* (- 1) (* s a)) (* (- 1) ?x51)) 0)))
 (let (($x1181 (= (+ (* r q) (* (- 1) (* s p)) ?x37 (* (- 1) ?x41)) 0)))
 (let (($x1187 (and $x1181 $x1171 $x1222 (= ?x1235 0) $x1232 $x1271)))
 (rewrite (= $x1187 $x1982))))))))))))))))))))))))))))))))))))))))))))))))))))))))))))))))))))))))))))))))))))))))))))))))))))))))))))))))
 ))
 (let (($x1164 (exists ((p Int) (a Int) (q Int) (b Int) (r Int) (s Int) )(! (let ((?x51 (* b00 r00)))
 (let ((?x47 (* a00 s00)))
 (let ((?x982 (* (- 1) ?x47)))
 (let ((?x1246 (+ (* (- 1) (* (+ b (* (- 1) a)) r)) ?x982 (* (+ s (* (- 1) r)) a) ?x51)))
 (let ((?x338 (* (- 1) p)))
 (let ((?x1260 (+ q ?x338)))
 (let ((?x944 (* (- 1) r)))
 (let ((?x1223 (+ s ?x944)))
 (let ((?x1279 (+ (* (- 1) (* ?x1223 (+ b (* (- 1) a)) ?x1260 r a)) (* ?x1223 ?x1223 ?x1223 ?x1260 r r r a a p))))
 (let ((?x955 (* (- 1) a)))
 (let ((?x1245 (+ b ?x955)))
 (let ((?x1283 (+ (* ?x1223 ?x1223 ?x1223 ?x1245 ?x1245 ?x1245 ?x1260 ?x1260 r r r p) (* ?x1223 ?x1245 ?x1245 r a p p p))))
 (let ((?x1218 (+ (* (- 1) (* (+ r (* (- 1) s)) b)) ?x982 (* (+ a (* (- 1) b)) s) ?x51)))
 (let ((?x1133 (+ p (* (- 1) q))))
 (let ((?x302 (* (- 1) b)))
 (let ((?x1207 (+ a ?x302)))
 (let ((?x264 (* (- 1) s)))
 (let ((?x1473 (+ r ?x264)))
 (let ((?x1248 (+ (* (- 1) (* ?x1473 ?x1207 s b q)) (* ?x1473 ?x1473 ?x1473 ?x1207 ?x1207 ?x1133 s s s q))))
 (let ((?x1253 (+ (* ?x1473 ?x1473 ?x1473 ?x1133 s s s b b b q q) (* ?x1473 ?x1207 ?x1133 ?x1133 ?x1133 s b b))))
 (let (($x1271 (or (not (= (* ?x1253 ?x1248 ?x1218) 0)) (not (= (* ?x1283 ?x1279 ?x1246) 0)))))
 (let ((?x73 (* b00 p00 s)))
 (let ((?x1228 (+ (* q00 r00 b) ?x73 (* (- 1) (* b00 r00 q)) (* (- 1) (* p00 s00 b)) (* a00 s00 q) (* (- 1) (* a00 q00 s)))))
 (let (($x1232 (= ?x1228 0)))
 (let ((?x1125 (* a00 s00 p)))
 (let ((?x1176 (* q00 r00 a)))
 (let ((?x65 (* b00 p00 r)))
 (let ((?x1194 (+ (* (- 1) (* b00 r00 p)) (* (- 1) (* p00 s00 a)) ?x65 ?x1176 ?x1125 (* (- 1) (* a00 q00 r)))))
 (let ((?x59 (* b p)))
 (let ((?x55 (* a00 q00)))
 (let (($x1166 (= (+ (* (- 1) (* q a)) ?x55 (* (- 1) (* b00 p00)) ?x59) 0)))
 (let ((?x41 (* q00 r00)))
 (let ((?x37 (* p00 s00)))
 (let ((?x143 (* (- 1) ?x37)))
 (let ((?x328 (* s p)))
 (and (= (+ (* (- 1) (* r q)) ?x328 ?x143 ?x41) 0) (= (+ (* (- 1) (* r b)) ?x982 (* s a) ?x51) 0) $x1166 (= ?x1194 0) $x1232 $x1271)))))))))))))))))))))))))))))))))))) :qid k!39))
 ))
 (let ((?x1524 (lambda ((p Int) (a Int) (q Int) (b Int) (r Int) (s Int) )(let ((?x51 (* b00 r00)))
 (let ((?x47 (* a00 s00)))
 (let ((?x982 (* (- 1) ?x47)))
 (let ((?x1246 (+ (* (- 1) (* (+ b (* (- 1) a)) r)) ?x982 (* (+ s (* (- 1) r)) a) ?x51)))
 (let ((?x338 (* (- 1) p)))
 (let ((?x1260 (+ q ?x338)))
 (let ((?x944 (* (- 1) r)))
 (let ((?x1223 (+ s ?x944)))
 (let ((?x1279 (+ (* (- 1) (* ?x1223 (+ b (* (- 1) a)) ?x1260 r a)) (* ?x1223 ?x1223 ?x1223 ?x1260 r r r a a p))))
 (let ((?x955 (* (- 1) a)))
 (let ((?x1245 (+ b ?x955)))
 (let ((?x1283 (+ (* ?x1223 ?x1223 ?x1223 ?x1245 ?x1245 ?x1245 ?x1260 ?x1260 r r r p) (* ?x1223 ?x1245 ?x1245 r a p p p))))
 (let ((?x1218 (+ (* (- 1) (* (+ r (* (- 1) s)) b)) ?x982 (* (+ a (* (- 1) b)) s) ?x51)))
 (let ((?x1133 (+ p (* (- 1) q))))
 (let ((?x302 (* (- 1) b)))
 (let ((?x1207 (+ a ?x302)))
 (let ((?x264 (* (- 1) s)))
 (let ((?x1473 (+ r ?x264)))
 (let ((?x1248 (+ (* (- 1) (* ?x1473 ?x1207 s b q)) (* ?x1473 ?x1473 ?x1473 ?x1207 ?x1207 ?x1133 s s s q))))
 (let ((?x1253 (+ (* ?x1473 ?x1473 ?x1473 ?x1133 s s s b b b q q) (* ?x1473 ?x1207 ?x1133 ?x1133 ?x1133 s b b))))
 (let (($x1271 (or (not (= (* ?x1253 ?x1248 ?x1218) 0)) (not (= (* ?x1283 ?x1279 ?x1246) 0)))))
 (let ((?x73 (* b00 p00 s)))
 (let ((?x1228 (+ (* q00 r00 b) ?x73 (* (- 1) (* b00 r00 q)) (* (- 1) (* p00 s00 b)) (* a00 s00 q) (* (- 1) (* a00 q00 s)))))
 (let (($x1232 (= ?x1228 0)))
 (let ((?x69 (* a00 q00 r)))
 (let ((?x822 (* p00 s00 a)))
 (let ((?x727 (* b00 r00 p)))
 (let ((?x1235 (+ ?x727 ?x822 (* (- 1) (* b00 p00 r)) (* (- 1) (* q00 r00 a)) (* (- 1) (* a00 s00 p)) ?x69)))
 (let ((?x57 (* b00 p00)))
 (let ((?x1568 (* q a)))
 (let (($x1222 (= (+ ?x1568 (* (- 1) (* a00 q00)) ?x57 (* (- 1) (* b p))) 0)))
 (let (($x1171 (= (+ (* r b) ?x47 (* (- 1) (* s a)) (* (- 1) ?x51)) 0)))
 (let ((?x41 (* q00 r00)))
 (let ((?x1262 (* (- 1) ?x41)))
 (let ((?x37 (* p00 s00)))
 (let ((?x1559 (* r q)))
 (let (($x1187 (and (= (+ ?x1559 (* (- 1) (* s p)) ?x37 ?x1262) 0) $x1171 $x1222 (= ?x1235 0) $x1232 $x1271)))
 (let ((?x1125 (* a00 s00 p)))
 (let ((?x1176 (* q00 r00 a)))
 (let ((?x65 (* b00 p00 r)))
 (let (($x1128 (= (+ (* (- 1) ?x727) (* (- 1) ?x822) ?x65 ?x1176 ?x1125 (* (- 1) ?x69)) 0)))
 (let (($x1166 (= (+ (* (- 1) ?x1568) (* a00 q00) (* (- 1) ?x57) (* b p)) 0)))
 (let (($x1204 (and (= (+ (* (- 1) ?x1559) (* s p) (* (- 1) ?x37) ?x41) 0) (= (+ (* (- 1) (* r b)) ?x982 (* s a) ?x51) 0) $x1166 $x1128 $x1232 $x1271)))
 (rewrite (= $x1204 $x1187))))))))))))))))))))))))))))))))))))))))))))))
 ))
 (let (($x118 (exists ((p Int) (a Int) (q Int) (b Int) (r Int) (s Int) )(! (let ((?x103 (- s r)))
 (let ((?x100 (- b a)))
 (let ((?x106 (- q p)))
 (let ((?x112 (+ (* ?x100 ?x100 ?x100 p ?x106 ?x106 r r r ?x103 ?x103 ?x103) (* a ?x100 ?x100 p p p r ?x103))))
 (let ((?x109 (+ (* (- 1) a ?x100 ?x106 r ?x103) (* a a p ?x106 r r r ?x103 ?x103 ?x103))))
 (let ((?x51 (* b00 r00)))
 (let ((?x113 (* (+ (- (* (- 1) ?x100 r) (* a00 s00)) (* a ?x103) ?x51) ?x109 ?x112)))
 (let ((?x84 (- r s)))
 (let ((?x91 (- p q)))
 (let ((?x87 (- a b)))
 (let ((?x96 (+ (* b b b ?x91 q q ?x84 ?x84 ?x84 s s s) (* ?x87 b b ?x91 ?x91 ?x91 ?x84 s))))
 (let ((?x93 (+ (* (- 1) ?x87 b q ?x84 s) (* ?x87 ?x87 ?x91 q ?x84 ?x84 ?x84 s s s))))
 (let ((?x97 (* (+ (- (* (- 1) b ?x84) (* a00 s00)) (* ?x87 s) ?x51) ?x93 ?x96)))
 (let ((?x81 (* a00 q00 s)))
 (let ((?x76 (* b p00 s00)))
 (let ((?x77 (- (+ (* b q00 r00) (* b00 p00 s)) (* b00 q r00))))
 (let ((?x69 (* a00 q00 r)))
 (let ((?x66 (* a q00 r00)))
 (let ((?x65 (* b00 p00 r)))
 (let ((?x68 (+ (- (* (- 1) b00 p r00) (* a p00 s00)) ?x65 ?x66 (* a00 p s00))))
 (let ((?x59 (* b p)))
 (let ((?x60 (+ (- (+ (* (- 1) a q) (* a00 q00)) (* b00 p00)) ?x59)))
 (let (($x53 (= (+ (- (* (- 1) b r) (* a00 s00)) (* a s) ?x51) 0)))
 (let ((?x41 (* q00 r00)))
 (let ((?x42 (+ (- (+ (* (- 1) q r) (* p s)) (* p00 s00)) ?x41)))
 (and (= ?x42 0) $x53 (= ?x60 0) (= (- ?x68 ?x69) 0) (= (- (+ (- ?x77 ?x76) (* a00 q s00)) ?x81) 0) (or (not (= ?x97 0)) (not (= ?x113 0))))))))))))))))))))))))))))) :qid k!39))
 ))
 (let ((?x1177 (lambda ((p Int) (a Int) (q Int) (b Int) (r Int) (s Int) )(let ((?x51 (* b00 r00)))
 (let ((?x47 (* a00 s00)))
 (let ((?x982 (* (- 1) ?x47)))
 (let ((?x1246 (+ (* (- 1) (* (+ b (* (- 1) a)) r)) ?x982 (* (+ s (* (- 1) r)) a) ?x51)))
 (let ((?x338 (* (- 1) p)))
 (let ((?x1260 (+ q ?x338)))
 (let ((?x944 (* (- 1) r)))
 (let ((?x1223 (+ s ?x944)))
 (let ((?x1279 (+ (* (- 1) (* ?x1223 (+ b (* (- 1) a)) ?x1260 r a)) (* ?x1223 ?x1223 ?x1223 ?x1260 r r r a a p))))
 (let ((?x955 (* (- 1) a)))
 (let ((?x1245 (+ b ?x955)))
 (let ((?x1283 (+ (* ?x1223 ?x1223 ?x1223 ?x1245 ?x1245 ?x1245 ?x1260 ?x1260 r r r p) (* ?x1223 ?x1245 ?x1245 r a p p p))))
 (let ((?x1218 (+ (* (- 1) (* (+ r (* (- 1) s)) b)) ?x982 (* (+ a (* (- 1) b)) s) ?x51)))
 (let ((?x1133 (+ p (* (- 1) q))))
 (let ((?x302 (* (- 1) b)))
 (let ((?x1207 (+ a ?x302)))
 (let ((?x264 (* (- 1) s)))
 (let ((?x1473 (+ r ?x264)))
 (let ((?x1248 (+ (* (- 1) (* ?x1473 ?x1207 s b q)) (* ?x1473 ?x1473 ?x1473 ?x1207 ?x1207 ?x1133 s s s q))))
 (let ((?x1253 (+ (* ?x1473 ?x1473 ?x1473 ?x1133 s s s b b b q q) (* ?x1473 ?x1207 ?x1133 ?x1133 ?x1133 s b b))))
 (let (($x1271 (or (not (= (* ?x1253 ?x1248 ?x1218) 0)) (not (= (* ?x1283 ?x1279 ?x1246) 0)))))
 (let ((?x73 (* b00 p00 s)))
 (let ((?x1228 (+ (* q00 r00 b) ?x73 (* (- 1) (* b00 r00 q)) (* (- 1) (* p00 s00 b)) (* a00 s00 q) (* (- 1) (* a00 q00 s)))))
 (let (($x1232 (= ?x1228 0)))
 (let ((?x1125 (* a00 s00 p)))
 (let ((?x1176 (* q00 r00 a)))
 (let ((?x65 (* b00 p00 r)))
 (let ((?x1194 (+ (* (- 1) (* b00 r00 p)) (* (- 1) (* p00 s00 a)) ?x65 ?x1176 ?x1125 (* (- 1) (* a00 q00 r)))))
 (let ((?x59 (* b p)))
 (let ((?x55 (* a00 q00)))
 (let (($x1166 (= (+ (* (- 1) (* q a)) ?x55 (* (- 1) (* b00 p00)) ?x59) 0)))
 (let ((?x41 (* q00 r00)))
 (let ((?x37 (* p00 s00)))
 (let ((?x143 (* (- 1) ?x37)))
 (let ((?x328 (* s p)))
 (let (($x1204 (and (= (+ (* (- 1) (* r q)) ?x328 ?x143 ?x41) 0) (= (+ (* (- 1) (* r b)) ?x982 (* s a) ?x51) 0) $x1166 (= ?x1194 0) $x1232 $x1271)))
 (let ((?x103 (- s r)))
 (let ((?x100 (- b a)))
 (let ((?x106 (- q p)))
 (let ((?x112 (+ (* ?x100 ?x100 ?x100 p ?x106 ?x106 r r r ?x103 ?x103 ?x103) (* a ?x100 ?x100 p p p r ?x103))))
 (let ((?x109 (+ (* (- 1) a ?x100 ?x106 r ?x103) (* a a p ?x106 r r r ?x103 ?x103 ?x103))))
 (let ((?x113 (* (+ (- (* (- 1) ?x100 r) ?x47) (* a ?x103) ?x51) ?x109 ?x112)))
 (let ((?x84 (- r s)))
 (let ((?x91 (- p q)))
 (let ((?x87 (- a b)))
 (let ((?x96 (+ (* b b b ?x91 q q ?x84 ?x84 ?x84 s s s) (* ?x87 b b ?x91 ?x91 ?x91 ?x84 s))))
 (let ((?x93 (+ (* (- 1) ?x87 b q ?x84 s) (* ?x87 ?x87 ?x91 q ?x84 ?x84 ?x84 s s s))))
 (let ((?x97 (* (+ (- (* (- 1) b ?x84) ?x47) (* ?x87 s) ?x51) ?x93 ?x96)))
 (let ((?x81 (* a00 q00 s)))
 (let ((?x76 (* b p00 s00)))
 (let ((?x80 (+ (- (- (+ (* b q00 r00) ?x73) (* b00 q r00)) ?x76) (* a00 q s00))))
 (let ((?x69 (* a00 q00 r)))
 (let ((?x66 (* a q00 r00)))
 (let ((?x68 (+ (- (* (- 1) b00 p r00) (* a p00 s00)) ?x65 ?x66 (* a00 p s00))))
 (let (($x61 (= (+ (- (+ (* (- 1) a q) ?x55) (* b00 p00)) ?x59) 0)))
 (let (($x44 (= (+ (- (+ (* (- 1) q r) (* p s)) ?x37) ?x41) 0)))
 (let (($x117 (and $x44 (= (+ (- (* (- 1) b r) ?x47) (* a s) ?x51) 0) $x61 (= (- ?x68 ?x69) 0) (= (- ?x80 ?x81) 0) (or (not (= ?x97 0)) (not (= ?x113 0))))))
 (rewrite (= $x117 $x1204))))))))))))))))))))))))))))))))))))))))))))))))))))))))))))
 ))
 (let ((@x119 (asserted $x118)))
 (let ((@x1188 (mp (mp @x119 (quant-intro (proof-bind ?x1177) (= $x118 $x1164)) $x1164) (rewrite (= $x1164 $x1164)) $x1164)))
 (let ((@x1699 (mp (mp @x1188 (quant-intro (proof-bind ?x1524) (= $x1164 $x1569)) $x1569) (quant-intro (proof-bind ?x1303) (= $x1569 $x1300)) $x1300)))
 (let ((@x1693 (mp (mp~ @x1699 (sk (~ $x1300 $x708)) $x708) (rewrite (= $x708 $x1712)) $x1712)))
 (let ((@x363 (and-elim @x1693 $x230)))
 (let ((@x1029 (unit-resolution ((_ th-lemma arith triangle-eq) (or (not $x230) $x1470)) @x363 $x1470)))
 (let (($x1741 (<= ?x232 0)))
 (let ((@x629 (unit-resolution ((_ th-lemma arith triangle-eq) (or (not $x230) $x1741)) @x363 $x1741)))
 (let (($x1918 (not (<= ?x1028 0))))
 (let (($x646 (>= ?x1120 0)))
 (let (($x504 (<= ?x1120 0)))
 (let ((@x437 (unit-resolution ((_ th-lemma arith triangle-eq) (or $x1685 (not $x504) (not $x646))) (lemma ((_ th-lemma arith farkas 1 1 1) (hypothesis (not $x504)) @x629 @x1029 false) $x504) (lemma ((_ th-lemma arith farkas 1 1 1) (hypothesis (not $x646)) @x629 @x1029 false) $x646) $x1685)))
 (let (($x1763 (>= ?x1028 0)))
 (let ((@x1650 (unit-resolution ((_ th-lemma arith triangle-eq) (or $x428 $x1918 (not $x1763))) (lemma ((_ th-lemma arith farkas 1 1 1) (hypothesis (not $x1763)) @x629 @x1029 false) $x1763) (unit-resolution (and-elim @x1693 $x365) @x437 $x1739) $x1918)))
 ((_ th-lemma arith farkas 1 1 1) @x1650 @x629 @x1029 false)))))))))))))))))))))))))))))))))))))))))))))))))))))))))))))))))))))))))))))))))))))))))))))))))))))))))))))))))))))))))))))))))))))))))))))

(:added-eqs                 6
 :arith-assert-diseq        3
 :arith-assert-lower        35
 :arith-assert-upper        18
 :arith-conflicts           4
 :arith-eq-adapter          7
 :arith-fixed-eqs           6
 :arith-max-min             936
 :arith-nonlinear-bounds    16
 :arith-num-rows            13
 :arith-pivots              5
 :arith-pseudo-nonlinear    8
 :arith-row-summations      1
 :arith-tableau-max-columns 130
 :arith-tableau-max-rows    13
 :conflicts                 4
 :decisions                 7
 :del-clause                15
 :final-checks              4
 :max-memory                3.88
 :memory                    3.29
 :mk-bool-var               27
 :mk-clause                 24
 :num-allocs                1272046
 :num-checks                1
 :propagations              19
 :rlimit-count              9813
 :time                      0.01
 :total-time                0.02)
